; benchmark generated from python API
(set-info :status unknown)
(declare-datatypes ((IntState 0)) (((Mk1 (val1 Int)) (Mk2 (val2 Int)))))
 (declare-fun c_main_~j~6 () Int)
(declare-fun c_main_~i~6 () Int)
(declare-fun c_main_~k~6 () Int)
(assert
 (let (($x65 (<= (* 2 c_main_~i~6) c_main_~j~6)))
 (let (($x16 (<= 2 c_main_~i~6)))
 (let (($x149 (<= 3 c_main_~i~6)))
 (let (($x47 (<= 1 c_main_~i~6)))
 (let (($x72 (exists ((v_nnf_28_st IntState) (val!121 Int) )(let (($x95 (and (<= c_main_~k~6 (+ (val2 v_nnf_28_st) 2)) (<= (* 2 (val2 v_nnf_28_st)) c_main_~j~6) (<= 3 (val2 v_nnf_28_st)))))
 (let (($x52 (not (= v_nnf_28_st (Mk1 val!121)))))
 (and $x52 $x95))))
 ))
 (let (($x177 (<= 0 c_main_~i~6)))
 (let (($x111 (exists ((main_~i~6 Int) )(let ((?x21 (* 2 main_~i~6)))
 (let (($x39 (<= ?x21 c_main_~j~6)))
 (let (($x86 (<= 3 main_~i~6)))
 (and (<= c_main_~k~6 main_~i~6) $x86 $x39)))))
 ))
 (and (and $x177 $x111 $x47 $x149 $x16 $x65) (not (and $x177 $x72 $x47 $x149 $x16 $x65)))))))))))
(check-sat)
